8
Time=0.0 pbc="T T T" Lattice="5.0 0.0 0.0 0.0 5.0 0.0 0.0 0.0 5.0" Properties=species:S:1:pos:R:3:spin:R:3:mforce:R:3
U 0.0 0.0 0.0  0.00 0.00 2.00  0.10 0.00 0.00
U 2.5 0.0 0.0  0.00 0.00 -2.00  0.10 0.00 0.00
U 0.0 2.5 0.0  0.00 0.00 -2.00  -0.10 0.00 0.00
U 2.5 2.5 0.0  0.00 0.00 2.00  -0.10 0.00 0.00
N 0.0 0.0 2.5  0.00 0.00 0.00  0.00 0.00 0.00
N 2.5 0.0 2.5  0.00 0.00 0.00  0.00 0.00 0.00
N 0.0 2.5 2.5  0.00 0.00 0.00  0.00 0.00 0.00
N 2.5 2.5 2.5  0.00 0.00 0.00  0.00 0.00 0.00
8
Time=1.0 pbc="T T T" Lattice="5.0 0.0 0.0 0.0 5.0 0.0 0.0 0.0 5.0" Properties=species:S:1:pos:R:3:spin:R:3:mforce:R:3
U 0.0 0.0 0.0  0.10 0.00 1.99  0.10 0.00 0.00
U 2.5 0.0 0.0  -0.10 0.00 -1.99  0.10 0.00 0.00
U 0.0 2.5 0.0  0.10 0.00 -1.99  -0.10 0.00 0.00
U 2.5 2.5 0.0  -0.10 0.00 1.99  -0.10 0.00 0.00
N 0.0 0.0 2.5  0.00 0.00 0.00  0.00 0.00 0.00
N 2.5 0.0 2.5  0.00 0.00 0.00  0.00 0.00 0.00
N 0.0 2.5 2.5  0.00 0.00 0.00  0.00 0.00 0.00
N 2.5 2.5 2.5  0.00 0.00 0.00  0.00 0.00 0.00
