22
Time=0 pbc="T T T" Lattice="6.0 0.0 0.0 0.0 6.0 0.0 0.0 0.0 6.0" Properties=species:S:1:pos:R:3:spin:R:3
U 0.0 0.0 -0.01   0.10 0.00 1.20
U 2.0 0.0  0.00  -0.10 0.00 -1.10
U 4.0 0.0  0.01   0.15 0.05 1.00
U 0.0 2.0  0.02  -0.12 0.04 -1.30
U 2.0 2.0  0.00   0.08 -0.03 1.40
U 4.0 2.0 -0.02  -0.06 0.02 -1.20
U 0.0 4.0  0.01   0.12 0.06 1.10
U 2.0 4.0 -0.01  -0.08 -0.04 -1.00
U 4.0 4.0  0.00   0.05 0.01 1.30
N 1.0 1.0  2.00   0.00 0.00 0.00
N 3.0 1.0  2.02   0.00 0.00 0.00
N 1.0 3.0  1.98   0.00 0.00 0.00
N 3.0 3.0  2.00   0.00 0.00 0.00
U 0.0 0.0  4.00   0.15 0.05 1.50
U 2.0 0.0  4.02  -0.25 0.08 1.20
U 4.0 0.0  3.99   0.50 0.00 0.85
U 0.0 2.0  4.01   0.08 0.60 0.75
U 2.0 2.0  4.00  -0.45 -0.40 -1.40
U 4.0 2.0  4.03   0.35 -0.70 -1.00
U 0.0 4.0  3.98  -0.60 0.25 0.55
U 2.0 4.0  4.01   0.18 -0.35 -1.65
U 4.0 4.0  4.00   0.75 0.18 0.35
22
Time=1 pbc="T T T" Lattice="6.0 0.0 0.0 0.0 6.0 0.0 0.0 0.0 6.0" Properties=species:S:1:pos:R:3:spin:R:3
U 0.0 0.0 -0.01   0.12 0.02 1.18
U 2.0 0.0  0.00  -0.12 0.02 -1.08
U 4.0 0.0  0.01   0.18 0.08 0.98
U 0.0 2.0  0.02  -0.15 0.05 -1.28
U 2.0 2.0  0.00   0.10 -0.05 1.38
U 4.0 2.0 -0.02  -0.08 0.04 -1.18
U 0.0 4.0  0.01   0.14 0.08 1.08
U 2.0 4.0 -0.01  -0.10 -0.06 -0.98
U 4.0 4.0  0.00   0.08 0.03 1.28
N 1.0 1.0  2.00   0.00 0.00 0.00
N 3.0 1.0  2.02   0.00 0.00 0.00
N 1.0 3.0  1.98   0.00 0.00 0.00
N 3.0 3.0  2.00   0.00 0.00 0.00
U 0.0 0.0  4.00   0.20 0.10 1.60
U 2.0 0.0  4.02  -0.40 0.10 1.30
U 4.0 0.0  3.99   0.60 0.00 0.90
U 0.0 2.0  4.01   0.10 0.70 0.80
U 2.0 2.0  4.00  -0.50 -0.50 -1.50
U 4.0 2.0  4.03   0.40 -0.80 -1.10
U 0.0 4.0  3.98  -0.70 0.30 0.60
U 2.0 4.0  4.01   0.20 -0.40 -1.80
U 4.0 4.0  4.00   0.90 0.20 0.40
