4
Time=0 Properties=species:S:1:pos:R:3:spin:R:3
U 0.0 0.0 0.0   0.20 0.05 1.60
U 2.0 0.0 0.0  -0.10 -0.04 -1.30
U 0.0 2.0 0.0   0.15 0.03 1.20
U 2.0 2.0 0.0  -0.05 -0.02 -1.00
4
Time=1 Properties=species:S:1:pos:R:3:spin:R:3
U 0.0 0.0 0.0   0.22 0.05 1.57
U 2.0 0.0 0.0  -0.09 -0.04 -1.28
U 0.0 2.0 0.0   0.15 0.04 1.19
U 2.0 2.0 0.0  -0.05 -0.02 -0.99
4
Time=2 Properties=species:S:1:pos:R:3:spin:R:3
U 0.0 0.0 0.0   0.24 0.05 1.54
U 2.0 0.0 0.0  -0.08 -0.04 -1.26
U 0.0 2.0 0.0   0.15 0.05 1.18
U 2.0 2.0 0.0  -0.05 -0.02 -0.98
4
Time=3 Properties=species:S:1:pos:R:3:spin:R:3
U 0.0 0.0 0.0   0.26 0.05 1.51
U 2.0 0.0 0.0  -0.07 -0.04 -1.24
U 0.0 2.0 0.0   0.15 0.06 1.17
U 2.0 2.0 0.0  -0.05 -0.02 -0.97
4
Time=4 Properties=species:S:1:pos:R:3:spin:R:3
U 0.0 0.0 0.0   0.28 0.05 1.48
U 2.0 0.0 0.0  -0.06 -0.04 -1.22
U 0.0 2.0 0.0   0.15 0.07 1.16
U 2.0 2.0 0.0  -0.05 -0.02 -0.96
4
Time=5 Properties=species:S:1:pos:R:3:spin:R:3
U 0.0 0.0 0.0   0.30 0.05 1.45
U 2.0 0.0 0.0  -0.05 -0.04 -1.20
U 0.0 2.0 0.0   0.15 0.08 1.15
U 2.0 2.0 0.0  -0.05 -0.02 -0.95
4
Time=6 Properties=species:S:1:pos:R:3:spin:R:3
U 0.0 0.0 0.0   0.32 0.05 1.42
U 2.0 0.0 0.0  -0.04 -0.04 -1.18
U 0.0 2.0 0.0   0.15 0.09 1.14
U 2.0 2.0 0.0  -0.05 -0.02 -0.94
4
Time=7 Properties=species:S:1:pos:R:3:spin:R:3
U 0.0 0.0 0.0   0.34 0.05 1.39
U 2.0 0.0 0.0  -0.03 -0.04 -1.16
U 0.0 2.0 0.0   0.15 0.10 1.13
U 2.0 2.0 0.0  -0.05 -0.02 -0.93
4
Time=8 Properties=species:S:1:pos:R:3:spin:R:3
U 0.0 0.0 0.0   0.36 0.05 1.36
U 2.0 0.0 0.0  -0.02 -0.04 -1.14
U 0.0 2.0 0.0   0.15 0.11 1.12
U 2.0 2.0 0.0  -0.05 -0.02 -0.92
4
Time=9 Properties=species:S:1:pos:R:3:spin:R:3
U 0.0 0.0 0.0   0.38 0.05 1.33
U 2.0 0.0 0.0  -0.01 -0.04 -1.12
U 0.0 2.0 0.0   0.15 0.12 1.11
U 2.0 2.0 0.0  -0.05 -0.02 -0.91
